num_offers = 30;
num_halls = 10;
start=[17,37,13,44,19,34,41,82,4,23,37,33,40,20,19,4,44,16,3,22,8,14,1,23,66,11,21,56,2,94];
end=[23,43,21,90,35,74,97,91,71,60,95,79,53,48,20,35,53,27,92,70,73,34,53,68,96,69,55,68,100,97];
price=[679,314,324,4352,861,1594,1560,396,2850,1092,4006,2540,829,2214,51,1440,974,329,5313,3265,4422,2066,4059,2776,687,4731,2932,385,3785,229];
requirement=[974,831,206,850,708,738,976,300,995,563,578,358,449,223,208,251,447,243,721,847,516,283,972,572,267,988,231,234,948,285];
capacity=[441,594,917,557,999,879,646,971,403,745];
